(set-info :smt-lib-version 2.6)
(set-logic ALIA)
(set-info :source |
Generated by the tool Ultimate Automizer [1,2] which implements
an automata theoretic approach [3] to software verification.

This SMT script belongs to a set of SMT scripts that was generated by
applying Ultimate Automizer to benchmarks [4] from the SV-COMP 2023 [5,6].
This script may not contain all SMT commands that Ultimate Automizer
issued. In order to meet the restrictions for SMT-COMP benchmarks 
we dropped the commands for getting values (resp. models), 
unsatisfiable cores, and interpolants.

2023-03-21, Matthias Heizmann (heizmann@informatik.uni-freiburg.de)

[1] https://ultimate.informatik.uni-freiburg.de/automizer/
[2] Matthias Heizmann, Max Barth, Daniel Dietsch, Leonard Fichtner,
     Jochen Hoenicke, Dominik Klumpp, Mehdi Naouar, Tanja Schindler,
     Frank Schüssele, Andreas Podelski: Ultimate Automizer and the
     CommuHash Normal Form (Competition Contribution). TACAS 2023
[3] Matthias Heizmann, Jochen Hoenicke, Andreas Podelski: Software Model
     Checking for People Who Love Automata. CAV 2013
[4] https://github.com/sosy-lab/sv-benchmarks
[5] Dirk Beyer: Competition on Software Verification and
     Witness Validation: SV-COMP 2023.  TACAS 2023
[6] https://sv-comp.sosy-lab.org/2023/
|)
(set-info :license "https://creativecommons.org/licenses/by/4.0/")
(set-info :category "industrial")
(set-info :status unknown)
(declare-fun ~unnamed0~0~P_ALL () Int)
(declare-fun ~unnamed0~0~P_PID () Int)
(declare-fun ~unnamed0~0~P_PGID () Int)
(assert (= ~unnamed0~0~P_ALL 0))
(assert (= ~unnamed0~0~P_PID 1))
(assert (= 2 ~unnamed0~0~P_PGID))
(declare-fun |ULTIMATE.start_main_~x~0#1.base| () Int)
(declare-fun |ULTIMATE.start_main_~x~0#1.offset| () Int)
(declare-fun |#memory_$Pointer$.base| () (Array Int (Array Int Int)))
(declare-fun |ULTIMATE.start_main_~head~0#1.offset| () Int)
(declare-fun |#memory_$Pointer$.offset| () (Array Int (Array Int Int)))
(declare-fun |ULTIMATE.start_main_~head~0#1.base| () Int)
(declare-fun |#valid| () (Array Int Int))
(assert (forall ((v_arrayElimArr_9 (Array Int Int))) (let ((.cse0 (+ 8 |ULTIMATE.start_main_~x~0#1.offset|))) (let ((.cse4 (select v_arrayElimArr_9 .cse0)) (.cse3 (+ |ULTIMATE.start_main_~head~0#1.offset| 8))) (let ((.cse2 (select (select (let ((.cse5 (store |#memory_$Pointer$.base| |ULTIMATE.start_main_~x~0#1.base| v_arrayElimArr_9))) (store .cse5 .cse4 (store (select .cse5 .cse4) 0 0))) |ULTIMATE.start_main_~head~0#1.base|) .cse3))) (or (forall ((v_arrayElimArr_8 (Array Int Int)) (v_ArrVal_345 (Array Int Int))) (or (not (= (select v_arrayElimArr_8 .cse0) 0)) (= (let ((.cse1 (store (store |#memory_$Pointer$.offset| |ULTIMATE.start_main_~x~0#1.base| v_arrayElimArr_8) .cse4 (store (select (store |#memory_$Pointer$.offset| |ULTIMATE.start_main_~x~0#1.base| v_ArrVal_345) .cse4) 0 0)))) (select (select .cse1 .cse2) (select (select .cse1 |ULTIMATE.start_main_~head~0#1.base|) .cse3))) 0))) (not (= (select |#valid| .cse4) 0)) (= .cse2 |ULTIMATE.start_main_~head~0#1.base|)))))))
(assert (forall ((v_arrayElimArr_9 (Array Int Int))) (let ((.cse5 (+ 8 |ULTIMATE.start_main_~x~0#1.offset|))) (let ((.cse0 (select v_arrayElimArr_9 .cse5))) (or (not (= (select |#valid| .cse0) 0)) (forall ((v_arrayElimArr_8 (Array Int Int))) (or (forall ((v_ArrVal_345 (Array Int Int))) (let ((.cse2 (+ |ULTIMATE.start_main_~head~0#1.offset| 8))) (let ((.cse4 (select (select (store (store |#memory_$Pointer$.offset| |ULTIMATE.start_main_~x~0#1.base| v_arrayElimArr_8) .cse0 (store (select (store |#memory_$Pointer$.offset| |ULTIMATE.start_main_~x~0#1.base| v_ArrVal_345) .cse0) 0 0)) |ULTIMATE.start_main_~head~0#1.base|) .cse2))) (or (= (select (let ((.cse1 (let ((.cse3 (store |#memory_$Pointer$.base| |ULTIMATE.start_main_~x~0#1.base| v_arrayElimArr_9))) (store .cse3 .cse0 (store (select .cse3 .cse0) 0 0))))) (select .cse1 (select (select .cse1 |ULTIMATE.start_main_~head~0#1.base|) .cse2))) .cse4) 0) (= |ULTIMATE.start_main_~head~0#1.offset| .cse4))))) (not (= (select v_arrayElimArr_8 .cse5) 0)))))))))
(assert (forall ((v_arrayElimArr_9 (Array Int Int))) (let ((.cse5 (+ 8 |ULTIMATE.start_main_~x~0#1.offset|))) (let ((.cse0 (select v_arrayElimArr_9 .cse5))) (or (not (= (select |#valid| .cse0) 0)) (forall ((v_arrayElimArr_8 (Array Int Int))) (or (forall ((v_ArrVal_345 (Array Int Int))) (let ((.cse2 (store (store |#memory_$Pointer$.offset| |ULTIMATE.start_main_~x~0#1.base| v_arrayElimArr_8) .cse0 (store (select (store |#memory_$Pointer$.offset| |ULTIMATE.start_main_~x~0#1.base| v_ArrVal_345) .cse0) 0 0))) (.cse4 (+ |ULTIMATE.start_main_~head~0#1.offset| 8))) (let ((.cse1 (select (select .cse2 |ULTIMATE.start_main_~head~0#1.base|) .cse4))) (or (= |ULTIMATE.start_main_~head~0#1.offset| .cse1) (= (select (select .cse2 (select (select (let ((.cse3 (store |#memory_$Pointer$.base| |ULTIMATE.start_main_~x~0#1.base| v_arrayElimArr_9))) (store .cse3 .cse0 (store (select .cse3 .cse0) 0 0))) |ULTIMATE.start_main_~head~0#1.base|) .cse4)) .cse1) 0))))) (not (= (select v_arrayElimArr_8 .cse5) 0)))))))))
(assert (not (forall ((v_arrayElimArr_9 (Array Int Int))) (let ((.cse4 (+ 8 |ULTIMATE.start_main_~x~0#1.offset|))) (let ((.cse2 (select v_arrayElimArr_9 .cse4))) (let ((.cse0 (let ((.cse5 (store |#memory_$Pointer$.base| |ULTIMATE.start_main_~x~0#1.base| v_arrayElimArr_9))) (store .cse5 .cse2 (store (select .cse5 .cse2) 0 0)))) (.cse3 (+ |ULTIMATE.start_main_~head~0#1.offset| 8))) (let ((.cse1 (select (select .cse0 |ULTIMATE.start_main_~head~0#1.base|) .cse3))) (or (forall ((v_arrayElimArr_8 (Array Int Int)) (v_ArrVal_345 (Array Int Int))) (or (= (select (select .cse0 .cse1) (select (select (store (store |#memory_$Pointer$.offset| |ULTIMATE.start_main_~x~0#1.base| v_arrayElimArr_8) .cse2 (store (select (store |#memory_$Pointer$.offset| |ULTIMATE.start_main_~x~0#1.base| v_ArrVal_345) .cse2) 0 0)) |ULTIMATE.start_main_~head~0#1.base|) .cse3)) 0) (not (= (select v_arrayElimArr_8 .cse4) 0)))) (not (= (select |#valid| .cse2) 0)) (= .cse1 |ULTIMATE.start_main_~head~0#1.base|)))))))))
(check-sat)
(exit)
